data/results/2026_03_24_00_34_13_set_set_set_s008_g001_max.sol
# Objective value = 69
c_n0n2n8n11 3
c_n1n2n3n5 4
c_n1n2n4n8n9 5
c_n2n8n11 2
c_n0n8n11 2
c_n0n2n11 2
c_n0n2n8 2
c_n2n3n5 2
c_n1n3n5 3
c_n1n2n5 2
c_n1n2n3 3
c_n2n4n8n9 4
c_n1n4n8n9 3
c_n1n2n8n9 3
c_n1n2n4n9 3
c_n1n2n4n8 4
c_n4n8n9 3
c_n2n8n9 2
c_n2n4n9 2
c_n2n4n8 3
c_n1n8n9 1
c_n1n4n9 2
c_n1n4n8 2
c_n1n2n9 2
c_n1n2n8 3
c_n1n2n4 2
y_n0n1 1
y_n1n2 0
y_n0n2 1
y_n1n3 1
y_n0n3 1
y_n1n4 0
y_n0n4 1
y_n1n5 1
y_n0n5 1
y_n1n6 0
y_n0n6 0
y_n1n7 0
y_n0n7 0
y_n1n8 0
y_n0n8 1
y_n1n9 0
y_n0n9 1
y_n1n10 0
y_n0n10 0
y_n1n11 0
y_n0n11 0
y_n1n12 0
y_n0n12 0
y_n2n3 1
y_n2n4 0
y_n2n5 1
y_n2n6 0
y_n2n7 0
y_n2n8 0
y_n2n9 0
y_n2n10 0
y_n2n11 0
y_n2n12 0
y_n3n4 0
y_n3n5 1
y_n3n6 0
y_n3n7 0
y_n3n8 0
y_n3n9 0
y_n3n10 0
y_n3n11 0
y_n3n12 0
y_n4n5 1
y_n4n6 0
y_n4n7 0
y_n4n8 1
y_n4n9 0
y_n4n10 0
y_n4n11 0
y_n4n12 0
y_n5n6 0
y_n5n7 0
y_n5n8 0
y_n5n9 0
y_n5n10 0
y_n5n11 0
y_n5n12 0
y_n6n7 0
y_n6n8 1
y_n6n9 1
y_n6n10 0
y_n6n11 1
y_n6n12 0
y_n7n8 1
y_n7n9 1
y_n7n10 0
y_n7n11 1
y_n7n12 0
y_n8n9 0
y_n8n10 0
y_n8n11 0
y_n8n12 0
y_n9n10 0
y_n9n11 0
y_n9n12 0
y_n10n11 1
y_n10n12 0
y_n11n12 0
pos_n0 5
pos_n1 10
pos_n2 9
pos_n3 11
pos_n4 7
pos_n5 12
pos_n6 3
pos_n7 2
pos_n8 8
pos_n9 6
pos_n10 1
pos_n11 4
pos_n12 0
z_n2n11 0
z_n2n8 1
z_n8n11 0
z_n2n3 0
z_n3n5 1
z_n3n4 0
z_n3n8 0
z_n3n9 0
z_n2n5 0
z_n2n4 0
z_n2n9 0
z_n4n5 0
z_n5n8 0
z_n5n9 0
z_n4n8 1
z_n4n9 1
z_n8n9 0
z_n1n3 1
z_n0n3 0
z_n3n11 0
z_n1n5 0
z_n1n4 0
z_n0n1 0
z_n1n11 0
z_n1n8 0
z_n1n9 0
z_n0n5 0
z_n5n11 0
z_n0n4 0
z_n4n11 0
z_n0n11 1
z_n0n8 0
z_n0n9 0
z_n9n11 0
z_n1n2 1
z_n1n6 0
z_n2n6 0
z_n6n8 0
z_n6n9 0
z_n4n7 0
z_n6n10 0
z_n0n2 0
z_n7n12 0
